# Objective value = 6.0156000000000006e+02
V0_0 1
V0_1 2
V0_2 3
V0_3 4
V0_4 5
V0_5 6
V0_6 7
V0_7 8
V0_8 9
V0_9 10
V0_10 11
V0_11 12
V0_12 13
V0_13 14
V0_14 15
V0_15 16
V0_16 15
V0_17 14
V0_18 13
V0_19 12
V0_20 11
V0_21 10
V0_22 9
V0_23 8
V0_24 7
V0_25 6
V0_26 5
V0_27 4
V0_28 3
V0_29 2
V0_30 1
V0_31 0
V0_32 0
V0_33 0
V0_34 0
f1_0 0
h1_0 0
32ac1_0 0
42ac1_0 0
e1_0 0
V1_0 1
f1_1 0
h1_1 0
32ac1_1 0
42ac1_1 0
e1_1 0
V1_1 2
f1_2 0
h1_2 0
32ac1_2 1
42ac1_2 0
e1_2 0.015625
V1_2 2
f1_3 0
h1_3 0
32ac1_3 0
42ac1_3 0
e1_3 0
V1_3 4
f1_4 0
h1_4 0
32ac1_4 0
42ac1_4 0
e1_4 0
V1_4 5
f1_5 0
h1_5 0
32ac1_5 0
42ac1_5 1
e1_5 0.0546875
V1_5 4
f1_6 0
h1_6 0
32ac1_6 0
42ac1_6 1
e1_6 0.0546875
V1_6 5
f1_7 0
h1_7 0
32ac1_7 0
42ac1_7 2
e1_7 0.109375
V1_7 4
f1_8 0
h1_8 0
32ac1_8 0
42ac1_8 0
e1_8 0
V1_8 9
f1_9 0
h1_9 0
32ac1_9 0
42ac1_9 2
e1_9 0.109375
V1_9 6
f1_10 0
h1_10 0
32ac1_10 0
42ac1_10 2
e1_10 0.109375
V1_10 7
f1_11 0
h1_11 0
32ac1_11 0
42ac1_11 3
e1_11 0.1640625
V1_11 6
f1_12 0
h1_12 0
32ac1_12 0
42ac1_12 3
e1_12 0.1640625
V1_12 7
f1_13 0
h1_13 0
32ac1_13 0
42ac1_13 3
e1_13 0.1640625
V1_13 8
f1_14 0
h1_14 0
32ac1_14 0
42ac1_14 3
e1_14 0.1640625
V1_14 9
f1_15 0
h1_15 0
32ac1_15 0
42ac1_15 4
e1_15 0.21875
V1_15 8
f1_16 0
h1_16 0
32ac1_16 0
42ac1_16 3
e1_16 0.1640625
V1_16 9
f1_17 0
h1_17 0
32ac1_17 4
42ac1_17 0
e1_17 0.0625
V1_17 10
f1_18 0
h1_18 0
32ac1_18 4
42ac1_18 0
e1_18 0.0625
V1_18 9
f1_19 0
h1_19 0
32ac1_19 4
42ac1_19 0
e1_19 0.0625
V1_19 8
f1_20 3
h1_20 0
32ac1_20 0
42ac1_20 0
e1_20 0
V1_20 5
f1_21 3
h1_21 0
32ac1_21 0
42ac1_21 0
e1_21 0
V1_21 7
f1_22 3
h1_22 0
32ac1_22 0
42ac1_22 0
e1_22 0
V1_22 6
f1_23 2
h1_23 1
32ac1_23 0
42ac1_23 0
e1_23 0
V1_23 6
f1_24 2
h1_24 0
32ac1_24 0
42ac1_24 0
e1_24 0
V1_24 6
f1_25 2
h1_25 0
32ac1_25 0
42ac1_25 0
e1_25 0
V1_25 4
f1_26 1
h1_26 0
32ac1_26 0
42ac1_26 0
e1_26 0
V1_26 5
f1_27 0
h1_27 0
32ac1_27 0
42ac1_27 0
e1_27 0
V1_27 5
f1_28 1
h1_28 0
32ac1_28 0
42ac1_28 0
e1_28 0
V1_28 1
f1_29 0
h1_29 0
32ac1_29 0
42ac1_29 0
e1_29 0
V1_29 3
f1_30 0
h1_30 0
32ac1_30 0
42ac1_30 0
e1_30 0
V1_30 1
f1_31 0
h1_31 0
32ac1_31 0
42ac1_31 0
e1_31 0
V1_31 0
f1_32 0
h1_32 0
32ac1_32 0
42ac1_32 0
e1_32 0
V1_32 0
f1_33 0
h1_33 0
32ac1_33 0
42ac1_33 0
e1_33 0
V1_33 0
f1_34 0
h1_34 0
32ac1_34 0
42ac1_34 0
e1_34 0
V1_34 0
f2_0 0
h2_0 0
32ac2_0 0
42ac2_0 0
e2_0 0
V2_0 1
f2_1 0
h2_1 0
32ac2_1 0
42ac2_1 0
e2_1 0
V2_1 2
f2_2 0
h2_2 0
32ac2_2 0
42ac2_2 0
e2_2 0
V2_2 2
f2_3 0
h2_3 0
32ac2_3 0
42ac2_3 1
e2_3 0.0546875
V2_3 2
f2_4 0
h2_4 0
32ac2_4 0
42ac2_4 0
e2_4 0
V2_4 5
f2_5 0
h2_5 0
32ac2_5 0
42ac2_5 0
e2_5 0
V2_5 4
f2_6 0
h2_6 0
32ac2_6 1
42ac2_6 0
e2_6 0.015625
V2_6 4
f2_7 0
h2_7 0
32ac2_7 0
42ac2_7 0
e2_7 0
V2_7 4
f2_8 0
h2_8 0
32ac2_8 0
42ac2_8 2
e2_8 0.109375
V2_8 5
f2_9 0
h2_9 0
32ac2_9 0
42ac2_9 1
e2_9 0.0546875
V2_9 4
f2_10 0
h2_10 0
32ac2_10 0
42ac2_10 0
e2_10 0
V2_10 7
f2_11 0
h2_11 0
32ac2_11 0
42ac2_11 0
e2_11 0
V2_11 6
f2_12 0
h2_12 0
32ac2_12 1
42ac2_12 0
e2_12 0.015625
V2_12 6
f2_13 0
h2_13 0
32ac2_13 0
42ac2_13 0
e2_13 0
V2_13 8
f2_14 0
h2_14 0
32ac2_14 1
42ac2_14 0
e2_14 0.015625
V2_14 8
f2_15 0
h2_15 0
32ac2_15 0
42ac2_15 0
e2_15 0
V2_15 8
f2_16 0
h2_16 0
32ac2_16 1
42ac2_16 0
e2_16 0.015625
V2_16 8
f2_17 0
h2_17 0
32ac2_17 0
42ac2_17 1
e2_17 0.0546875
V2_17 8
f2_18 0
h2_18 0
32ac2_18 3
42ac2_18 0
e2_18 0.046875
V2_18 6
f2_19 0
h2_19 0
32ac2_19 2
42ac2_19 0
e2_19 0.03125
V2_19 6
f2_20 1
h2_20 0
32ac2_20 0
42ac2_20 0
e2_20 0
V2_20 3
f2_21 1
h2_21 0
32ac2_21 0
42ac2_21 0
e2_21 0
V2_21 6
f2_22 2
h2_22 0
32ac2_22 0
42ac2_22 0
e2_22 0
V2_22 3
f2_23 2
h2_23 0
32ac2_23 0
42ac2_23 0
e2_23 0
V2_23 4
f2_24 1
h2_24 0
32ac2_24 0
42ac2_24 0
e2_24 0
V2_24 6
f2_25 1
h2_25 0
32ac2_25 0
42ac2_25 0
e2_25 0
V2_25 3
f2_26 0
h2_26 0
32ac2_26 0
42ac2_26 0
e2_26 0
V2_26 6
f2_27 1
h2_27 0
32ac2_27 0
42ac2_27 0
e2_27 0
V2_27 3
f2_28 0
h2_28 0
32ac2_28 0
42ac2_28 0
e2_28 0
V2_28 2
f2_29 0
h2_29 0
32ac2_29 0
42ac2_29 0
e2_29 0
V2_29 3
f2_30 0
h2_30 0
32ac2_30 0
42ac2_30 0
e2_30 0
V2_30 1
f2_31 0
h2_31 0
32ac2_31 0
42ac2_31 0
e2_31 0
V2_31 0
f2_32 0
h2_32 0
32ac2_32 0
42ac2_32 0
e2_32 0
V2_32 0
f2_33 0
h2_33 0
32ac2_33 0
42ac2_33 0
e2_33 0
V2_33 0
f2_34 0
h2_34 0
32ac2_34 0
42ac2_34 0
e2_34 0
V2_34 0
f3_0 0
h3_0 0
32ac3_0 0
42ac3_0 0
e3_0 0
V3_0 1
f3_1 0
h3_1 0
32ac3_1 0
42ac3_1 0
e3_1 0
V3_1 2
f3_2 0
h3_2 0
32ac3_2 0
42ac3_2 0
e3_2 0
V3_2 2
f3_3 0
h3_3 0
32ac3_3 0
42ac3_3 0
e3_3 0
V3_3 2
f3_4 0
h3_4 0
32ac3_4 1
42ac3_4 0
e3_4 0.015625
V3_4 4
f3_5 0
h3_5 0
32ac3_5 0
42ac3_5 0
e3_5 0
V3_5 4
f3_6 0
h3_6 0
32ac3_6 0
42ac3_6 1
e3_6 0.0546875
V3_6 2
f3_7 0
h3_7 0
32ac3_7 0
42ac3_7 1
e3_7 0.0546875
V3_7 2
f3_8 0
h3_8 0
32ac3_8 1
42ac3_8 0
e3_8 0.015625
V3_8 4
f3_9 0
h3_9 0
32ac3_9 0
42ac3_9 1
e3_9 0.0546875
V3_9 2
f3_10 0
h3_10 0
32ac3_10 1
42ac3_10 1
e3_10 0.0703125
V3_10 4
f3_11 0
h3_11 0
32ac3_11 0
42ac3_11 1
e3_11 0.0546875
V3_11 4
f3_12 0
h3_12 0
32ac3_12 0
42ac3_12 1
e3_12 0.0546875
V3_12 4
f3_13 0
h3_13 0
32ac3_13 0
42ac3_13 2
e3_13 0.109375
V3_13 4
f3_14 0
h3_14 0
32ac3_14 0
42ac3_14 2
e3_14 0.109375
V3_14 4
f3_15 0
h3_15 0
32ac3_15 0
42ac3_15 2
e3_15 0.109375
V3_15 4
f3_16 0
h3_16 0
32ac3_16 0
42ac3_16 2
e3_16 0.109375
V3_16 4
f3_17 0
h3_17 0
32ac3_17 0
42ac3_17 2
e3_17 0.109375
V3_17 4
f3_18 0
h3_18 0
32ac3_18 2
42ac3_18 0
e3_18 0.03125
V3_18 4
f3_19 0
h3_19 0
32ac3_19 2
42ac3_19 0
e3_19 0.03125
V3_19 4
f3_20 0
h3_20 0
32ac3_20 0
42ac3_20 0
e3_20 0
V3_20 3
f3_21 1
h3_21 1
32ac3_21 0
42ac3_21 0
e3_21 0
V3_21 3
f3_22 1
h3_22 0
32ac3_22 0
42ac3_22 0
e3_22 0
V3_22 3
f3_23 1
h3_23 0
32ac3_23 0
42ac3_23 0
e3_23 0
V3_23 3
f3_24 2
h3_24 0
32ac3_24 0
42ac3_24 0
e3_24 0
V3_24 3
f3_25 1
h3_25 0
32ac3_25 0
42ac3_25 0
e3_25 0
V3_25 3
f3_26 2
h3_26 0
32ac3_26 0
42ac3_26 0
e3_26 0
V3_26 3
f3_27 1
h3_27 0
32ac3_27 0
42ac3_27 0
e3_27 0
V3_27 3
f3_28 0
h3_28 0
32ac3_28 0
42ac3_28 0
e3_28 0
V3_28 3
f3_29 1
h3_29 0
32ac3_29 0
42ac3_29 0
e3_29 0
V3_29 1
f3_30 0
h3_30 0
32ac3_30 0
42ac3_30 0
e3_30 0
V3_30 2
f3_31 0
h3_31 0
32ac3_31 0
42ac3_31 0
e3_31 0
V3_31 0
f3_32 0
h3_32 0
32ac3_32 0
42ac3_32 0
e3_32 0
V3_32 0
f3_33 0
h3_33 0
32ac3_33 0
42ac3_33 0
e3_33 0
V3_33 0
f3_34 0
h3_34 0
32ac3_34 0
42ac3_34 0
e3_34 0
V3_34 0
f4_0 0
h4_0 0
32ac4_0 0
42ac4_0 0
e4_0 0
V4_0 1
f4_1 0
h4_1 0
32ac4_1 0
42ac4_1 0
e4_1 0
V4_1 2
f4_2 0
h4_2 0
32ac4_2 0
42ac4_2 0
e4_2 0
V4_2 2
f4_3 0
h4_3 0
32ac4_3 0
42ac4_3 0
e4_3 0
V4_3 2
f4_4 0
h4_4 0
32ac4_4 0
42ac4_4 1
e4_4 0.0546875
V4_4 2
f4_5 0
h4_5 0
32ac4_5 0
42ac4_5 1
e4_5 0.0546875
V4_5 2
f4_6 0
h4_6 0
32ac4_6 0
42ac4_6 0
e4_6 0
V4_6 2
f4_7 0
h4_7 0
32ac4_7 0
42ac4_7 0
e4_7 0
V4_7 2
f4_8 0
h4_8 0
32ac4_8 0
42ac4_8 1
e4_8 0.0546875
V4_8 2
f4_9 0
h4_9 0
32ac4_9 0
42ac4_9 0
e4_9 0
V4_9 2
f4_10 0
h4_10 0
32ac4_10 0
42ac4_10 1
e4_10 0.0546875
V4_10 2
f4_11 0
h4_11 0
32ac4_11 0
42ac4_11 1
e4_11 0.0546875
V4_11 2
f4_12 0
h4_12 0
32ac4_12 0
42ac4_12 1
e4_12 0.0546875
V4_12 2
f4_13 0
h4_13 0
32ac4_13 0
42ac4_13 1
e4_13 0.0546875
V4_13 2
f4_14 0
h4_14 0
32ac4_14 0
42ac4_14 1
e4_14 0.0546875
V4_14 2
f4_15 0
h4_15 0
32ac4_15 0
42ac4_15 1
e4_15 0.0546875
V4_15 2
f4_16 0
h4_16 0
32ac4_16 0
42ac4_16 1
e4_16 0.0546875
V4_16 2
f4_17 0
h4_17 0
32ac4_17 0
42ac4_17 1
e4_17 0.0546875
V4_17 2
f4_18 0
h4_18 0
32ac4_18 0
42ac4_18 1
e4_18 0.0546875
V4_18 2
f4_19 1
h4_19 0
32ac4_19 0
42ac4_19 0
e4_19 0
V4_19 2
f4_20 1
h4_20 0
32ac4_20 0
42ac4_20 0
e4_20 0
V4_20 2
f4_21 1
h4_21 0
32ac4_21 0
42ac4_21 0
e4_21 0
V4_21 2
f4_22 1
h4_22 0
32ac4_22 0
42ac4_22 0
e4_22 0
V4_22 2
f4_23 1
h4_23 0
32ac4_23 0
42ac4_23 0
e4_23 0
V4_23 2
f4_24 1
h4_24 0
32ac4_24 0
42ac4_24 0
e4_24 0
V4_24 2
f4_25 1
h4_25 0
32ac4_25 0
42ac4_25 0
e4_25 0
V4_25 2
f4_26 1
h4_26 0
32ac4_26 0
42ac4_26 0
e4_26 0
V4_26 2
f4_27 1
h4_27 0
32ac4_27 0
42ac4_27 0
e4_27 0
V4_27 2
f4_28 1
h4_28 0
32ac4_28 0
42ac4_28 0
e4_28 0
V4_28 2
f4_29 0
h4_29 0
32ac4_29 0
42ac4_29 0
e4_29 0
V4_29 2
f4_30 0
h4_30 0
32ac4_30 0
42ac4_30 0
e4_30 0
V4_30 2
f4_31 0
h4_31 0
32ac4_31 0
42ac4_31 0
e4_31 0
V4_31 0
f4_32 0
h4_32 0
32ac4_32 0
42ac4_32 0
e4_32 0
V4_32 0
f4_33 0
h4_33 0
32ac4_33 0
42ac4_33 0
e4_33 0
V4_33 0
f4_34 0
h4_34 0
32ac4_34 0
42ac4_34 0
e4_34 0
V4_34 0
hs 2
fs 46
ac32s 29
ac42s 60
E_0 0
E_1 0
E_2 0.015625
E_3 0.0546875
E_4 0.0703125
E_5 0.109375
E_6 0.125
E_7 0.1640625
E_8 0.1796875
E_9 0.21875
E_10 0.234375
E_11 0.2734375
E_12 0.2890625
E_13 0.328125
E_14 0.34375
E_15 0.3828125
E_16 0.34375
E_17 0.28125
E_18 0.1953125
E_19 0.125
E_20 0
E_21 0
E_22 0
E_23 0
E_24 0
E_25 0
E_26 0
E_27 0
E_28 0
E_29 0
E_30 0
E_31 0
E_32 0
E_33 0
E_34 0
E 199168.125
